certificates/rado_a11_c1_N142.cnf
c Rad2 upper bound instance: x1 + 11*x2 - x3 = 1, interval [1,142]
p cnf 142 1716
1 11 0
-1 -11 0
1 2 22 0
-1 -2 -22 0
1 3 33 0
-1 -3 -33 0
1 4 44 0
-1 -4 -44 0
1 5 55 0
-1 -5 -55 0
1 6 66 0
-1 -6 -66 0
1 7 77 0
-1 -7 -77 0
1 8 88 0
-1 -8 -88 0
1 9 99 0
-1 -9 -99 0
1 10 110 0
-1 -10 -110 0
1 11 121 0
-1 -11 -121 0
1 12 132 0
-1 -12 -132 0
1 2 12 0
-1 -2 -12 0
2 23 0
-2 -23 0
2 3 34 0
-2 -3 -34 0
2 4 45 0
-2 -4 -45 0
2 5 56 0
-2 -5 -56 0
2 6 67 0
-2 -6 -67 0
2 7 78 0
-2 -7 -78 0
2 8 89 0
-2 -8 -89 0
2 9 100 0
-2 -9 -100 0
2 10 111 0
-2 -10 -111 0
2 11 122 0
-2 -11 -122 0
2 12 133 0
-2 -12 -133 0
1 3 13 0
-1 -3 -13 0
2 3 24 0
-2 -3 -24 0
3 35 0
-3 -35 0
3 4 46 0
-3 -4 -46 0
3 5 57 0
-3 -5 -57 0
3 6 68 0
-3 -6 -68 0
3 7 79 0
-3 -7 -79 0
3 8 90 0
-3 -8 -90 0
3 9 101 0
-3 -9 -101 0
3 10 112 0
-3 -10 -112 0
3 11 123 0
-3 -11 -123 0
3 12 134 0
-3 -12 -134 0
1 4 14 0
-1 -4 -14 0
2 4 25 0
-2 -4 -25 0
3 4 36 0
-3 -4 -36 0
4 47 0
-4 -47 0
4 5 58 0
-4 -5 -58 0
4 6 69 0
-4 -6 -69 0
4 7 80 0
-4 -7 -80 0
4 8 91 0
-4 -8 -91 0
4 9 102 0
-4 -9 -102 0
4 10 113 0
-4 -10 -113 0
4 11 124 0
-4 -11 -124 0
4 12 135 0
-4 -12 -135 0
1 5 15 0
-1 -5 -15 0
2 5 26 0
-2 -5 -26 0
3 5 37 0
-3 -5 -37 0
4 5 48 0
-4 -5 -48 0
5 59 0
-5 -59 0
5 6 70 0
-5 -6 -70 0
5 7 81 0
-5 -7 -81 0
5 8 92 0
-5 -8 -92 0
5 9 103 0
-5 -9 -103 0
5 10 114 0
-5 -10 -114 0
5 11 125 0
-5 -11 -125 0
5 12 136 0
-5 -12 -136 0
1 6 16 0
-1 -6 -16 0
2 6 27 0
-2 -6 -27 0
3 6 38 0
-3 -6 -38 0
4 6 49 0
-4 -6 -49 0
5 6 60 0
-5 -6 -60 0
6 71 0
-6 -71 0
6 7 82 0
-6 -7 -82 0
6 8 93 0
-6 -8 -93 0
6 9 104 0
-6 -9 -104 0
6 10 115 0
-6 -10 -115 0
6 11 126 0
-6 -11 -126 0
6 12 137 0
-6 -12 -137 0
1 7 17 0
-1 -7 -17 0
2 7 28 0
-2 -7 -28 0
3 7 39 0
-3 -7 -39 0
4 7 50 0
-4 -7 -50 0
5 7 61 0
-5 -7 -61 0
6 7 72 0
-6 -7 -72 0
7 83 0
-7 -83 0
7 8 94 0
-7 -8 -94 0
7 9 105 0
-7 -9 -105 0
7 10 116 0
-7 -10 -116 0
7 11 127 0
-7 -11 -127 0
7 12 138 0
-7 -12 -138 0
1 8 18 0
-1 -8 -18 0
2 8 29 0
-2 -8 -29 0
3 8 40 0
-3 -8 -40 0
4 8 51 0
-4 -8 -51 0
5 8 62 0
-5 -8 -62 0
6 8 73 0
-6 -8 -73 0
7 8 84 0
-7 -8 -84 0
8 95 0
-8 -95 0
8 9 106 0
-8 -9 -106 0
8 10 117 0
-8 -10 -117 0
8 11 128 0
-8 -11 -128 0
8 12 139 0
-8 -12 -139 0
1 9 19 0
-1 -9 -19 0
2 9 30 0
-2 -9 -30 0
3 9 41 0
-3 -9 -41 0
4 9 52 0
-4 -9 -52 0
5 9 63 0
-5 -9 -63 0
6 9 74 0
-6 -9 -74 0
7 9 85 0
-7 -9 -85 0
8 9 96 0
-8 -9 -96 0
9 107 0
-9 -107 0
9 10 118 0
-9 -10 -118 0
9 11 129 0
-9 -11 -129 0
9 12 140 0
-9 -12 -140 0
1 10 20 0
-1 -10 -20 0
2 10 31 0
-2 -10 -31 0
3 10 42 0
-3 -10 -42 0
4 10 53 0
-4 -10 -53 0
5 10 64 0
-5 -10 -64 0
6 10 75 0
-6 -10 -75 0
7 10 86 0
-7 -10 -86 0
8 10 97 0
-8 -10 -97 0
9 10 108 0
-9 -10 -108 0
10 119 0
-10 -119 0
10 11 130 0
-10 -11 -130 0
10 12 141 0
-10 -12 -141 0
1 11 21 0
-1 -11 -21 0
2 11 32 0
-2 -11 -32 0
3 11 43 0
-3 -11 -43 0
4 11 54 0
-4 -11 -54 0
5 11 65 0
-5 -11 -65 0
6 11 76 0
-6 -11 -76 0
7 11 87 0
-7 -11 -87 0
8 11 98 0
-8 -11 -98 0
9 11 109 0
-9 -11 -109 0
10 11 120 0
-10 -11 -120 0
11 131 0
-11 -131 0
11 12 142 0
-11 -12 -142 0
1 12 22 0
-1 -12 -22 0
2 12 33 0
-2 -12 -33 0
3 12 44 0
-3 -12 -44 0
4 12 55 0
-4 -12 -55 0
5 12 66 0
-5 -12 -66 0
6 12 77 0
-6 -12 -77 0
7 12 88 0
-7 -12 -88 0
8 12 99 0
-8 -12 -99 0
9 12 110 0
-9 -12 -110 0
10 12 121 0
-10 -12 -121 0
11 12 132 0
-11 -12 -132 0
1 13 23 0
-1 -13 -23 0
2 13 34 0
-2 -13 -34 0
3 13 45 0
-3 -13 -45 0
4 13 56 0
-4 -13 -56 0
5 13 67 0
-5 -13 -67 0
6 13 78 0
-6 -13 -78 0
7 13 89 0
-7 -13 -89 0
8 13 100 0
-8 -13 -100 0
9 13 111 0
-9 -13 -111 0
10 13 122 0
-10 -13 -122 0
11 13 133 0
-11 -13 -133 0
1 14 24 0
-1 -14 -24 0
2 14 35 0
-2 -14 -35 0
3 14 46 0
-3 -14 -46 0
4 14 57 0
-4 -14 -57 0
5 14 68 0
-5 -14 -68 0
6 14 79 0
-6 -14 -79 0
7 14 90 0
-7 -14 -90 0
8 14 101 0
-8 -14 -101 0
9 14 112 0
-9 -14 -112 0
10 14 123 0
-10 -14 -123 0
11 14 134 0
-11 -14 -134 0
1 15 25 0
-1 -15 -25 0
2 15 36 0
-2 -15 -36 0
3 15 47 0
-3 -15 -47 0
4 15 58 0
-4 -15 -58 0
5 15 69 0
-5 -15 -69 0
6 15 80 0
-6 -15 -80 0
7 15 91 0
-7 -15 -91 0
8 15 102 0
-8 -15 -102 0
9 15 113 0
-9 -15 -113 0
10 15 124 0
-10 -15 -124 0
11 15 135 0
-11 -15 -135 0
1 16 26 0
-1 -16 -26 0
2 16 37 0
-2 -16 -37 0
3 16 48 0
-3 -16 -48 0
4 16 59 0
-4 -16 -59 0
5 16 70 0
-5 -16 -70 0
6 16 81 0
-6 -16 -81 0
7 16 92 0
-7 -16 -92 0
8 16 103 0
-8 -16 -103 0
9 16 114 0
-9 -16 -114 0
10 16 125 0
-10 -16 -125 0
11 16 136 0
-11 -16 -136 0
1 17 27 0
-1 -17 -27 0
2 17 38 0
-2 -17 -38 0
3 17 49 0
-3 -17 -49 0
4 17 60 0
-4 -17 -60 0
5 17 71 0
-5 -17 -71 0
6 17 82 0
-6 -17 -82 0
7 17 93 0
-7 -17 -93 0
8 17 104 0
-8 -17 -104 0
9 17 115 0
-9 -17 -115 0
10 17 126 0
-10 -17 -126 0
11 17 137 0
-11 -17 -137 0
1 18 28 0
-1 -18 -28 0
2 18 39 0
-2 -18 -39 0
3 18 50 0
-3 -18 -50 0
4 18 61 0
-4 -18 -61 0
5 18 72 0
-5 -18 -72 0
6 18 83 0
-6 -18 -83 0
7 18 94 0
-7 -18 -94 0
8 18 105 0
-8 -18 -105 0
9 18 116 0
-9 -18 -116 0
10 18 127 0
-10 -18 -127 0
11 18 138 0
-11 -18 -138 0
1 19 29 0
-1 -19 -29 0
2 19 40 0
-2 -19 -40 0
3 19 51 0
-3 -19 -51 0
4 19 62 0
-4 -19 -62 0
5 19 73 0
-5 -19 -73 0
6 19 84 0
-6 -19 -84 0
7 19 95 0
-7 -19 -95 0
8 19 106 0
-8 -19 -106 0
9 19 117 0
-9 -19 -117 0
10 19 128 0
-10 -19 -128 0
11 19 139 0
-11 -19 -139 0
1 20 30 0
-1 -20 -30 0
2 20 41 0
-2 -20 -41 0
3 20 52 0
-3 -20 -52 0
4 20 63 0
-4 -20 -63 0
5 20 74 0
-5 -20 -74 0
6 20 85 0
-6 -20 -85 0
7 20 96 0
-7 -20 -96 0
8 20 107 0
-8 -20 -107 0
9 20 118 0
-9 -20 -118 0
10 20 129 0
-10 -20 -129 0
11 20 140 0
-11 -20 -140 0
1 21 31 0
-1 -21 -31 0
2 21 42 0
-2 -21 -42 0
3 21 53 0
-3 -21 -53 0
4 21 64 0
-4 -21 -64 0
5 21 75 0
-5 -21 -75 0
6 21 86 0
-6 -21 -86 0
7 21 97 0
-7 -21 -97 0
8 21 108 0
-8 -21 -108 0
9 21 119 0
-9 -21 -119 0
10 21 130 0
-10 -21 -130 0
11 21 141 0
-11 -21 -141 0
1 22 32 0
-1 -22 -32 0
2 22 43 0
-2 -22 -43 0
3 22 54 0
-3 -22 -54 0
4 22 65 0
-4 -22 -65 0
5 22 76 0
-5 -22 -76 0
6 22 87 0
-6 -22 -87 0
7 22 98 0
-7 -22 -98 0
8 22 109 0
-8 -22 -109 0
9 22 120 0
-9 -22 -120 0
10 22 131 0
-10 -22 -131 0
11 22 142 0
-11 -22 -142 0
1 23 33 0
-1 -23 -33 0
2 23 44 0
-2 -23 -44 0
3 23 55 0
-3 -23 -55 0
4 23 66 0
-4 -23 -66 0
5 23 77 0
-5 -23 -77 0
6 23 88 0
-6 -23 -88 0
7 23 99 0
-7 -23 -99 0
8 23 110 0
-8 -23 -110 0
9 23 121 0
-9 -23 -121 0
10 23 132 0
-10 -23 -132 0
1 24 34 0
-1 -24 -34 0
2 24 45 0
-2 -24 -45 0
3 24 56 0
-3 -24 -56 0
4 24 67 0
-4 -24 -67 0
5 24 78 0
-5 -24 -78 0
6 24 89 0
-6 -24 -89 0
7 24 100 0
-7 -24 -100 0
8 24 111 0
-8 -24 -111 0
9 24 122 0
-9 -24 -122 0
10 24 133 0
-10 -24 -133 0
1 25 35 0
-1 -25 -35 0
2 25 46 0
-2 -25 -46 0
3 25 57 0
-3 -25 -57 0
4 25 68 0
-4 -25 -68 0
5 25 79 0
-5 -25 -79 0
6 25 90 0
-6 -25 -90 0
7 25 101 0
-7 -25 -101 0
8 25 112 0
-8 -25 -112 0
9 25 123 0
-9 -25 -123 0
10 25 134 0
-10 -25 -134 0
1 26 36 0
-1 -26 -36 0
2 26 47 0
-2 -26 -47 0
3 26 58 0
-3 -26 -58 0
4 26 69 0
-4 -26 -69 0
5 26 80 0
-5 -26 -80 0
6 26 91 0
-6 -26 -91 0
7 26 102 0
-7 -26 -102 0
8 26 113 0
-8 -26 -113 0
9 26 124 0
-9 -26 -124 0
10 26 135 0
-10 -26 -135 0
1 27 37 0
-1 -27 -37 0
2 27 48 0
-2 -27 -48 0
3 27 59 0
-3 -27 -59 0
4 27 70 0
-4 -27 -70 0
5 27 81 0
-5 -27 -81 0
6 27 92 0
-6 -27 -92 0
7 27 103 0
-7 -27 -103 0
8 27 114 0
-8 -27 -114 0
9 27 125 0
-9 -27 -125 0
10 27 136 0
-10 -27 -136 0
1 28 38 0
-1 -28 -38 0
2 28 49 0
-2 -28 -49 0
3 28 60 0
-3 -28 -60 0
4 28 71 0
-4 -28 -71 0
5 28 82 0
-5 -28 -82 0
6 28 93 0
-6 -28 -93 0
7 28 104 0
-7 -28 -104 0
8 28 115 0
-8 -28 -115 0
9 28 126 0
-9 -28 -126 0
10 28 137 0
-10 -28 -137 0
1 29 39 0
-1 -29 -39 0
2 29 50 0
-2 -29 -50 0
3 29 61 0
-3 -29 -61 0
4 29 72 0
-4 -29 -72 0
5 29 83 0
-5 -29 -83 0
6 29 94 0
-6 -29 -94 0
7 29 105 0
-7 -29 -105 0
8 29 116 0
-8 -29 -116 0
9 29 127 0
-9 -29 -127 0
10 29 138 0
-10 -29 -138 0
1 30 40 0
-1 -30 -40 0
2 30 51 0
-2 -30 -51 0
3 30 62 0
-3 -30 -62 0
4 30 73 0
-4 -30 -73 0
5 30 84 0
-5 -30 -84 0
6 30 95 0
-6 -30 -95 0
7 30 106 0
-7 -30 -106 0
8 30 117 0
-8 -30 -117 0
9 30 128 0
-9 -30 -128 0
10 30 139 0
-10 -30 -139 0
1 31 41 0
-1 -31 -41 0
2 31 52 0
-2 -31 -52 0
3 31 63 0
-3 -31 -63 0
4 31 74 0
-4 -31 -74 0
5 31 85 0
-5 -31 -85 0
6 31 96 0
-6 -31 -96 0
7 31 107 0
-7 -31 -107 0
8 31 118 0
-8 -31 -118 0
9 31 129 0
-9 -31 -129 0
10 31 140 0
-10 -31 -140 0
1 32 42 0
-1 -32 -42 0
2 32 53 0
-2 -32 -53 0
3 32 64 0
-3 -32 -64 0
4 32 75 0
-4 -32 -75 0
5 32 86 0
-5 -32 -86 0
6 32 97 0
-6 -32 -97 0
7 32 108 0
-7 -32 -108 0
8 32 119 0
-8 -32 -119 0
9 32 130 0
-9 -32 -130 0
10 32 141 0
-10 -32 -141 0
1 33 43 0
-1 -33 -43 0
2 33 54 0
-2 -33 -54 0
3 33 65 0
-3 -33 -65 0
4 33 76 0
-4 -33 -76 0
5 33 87 0
-5 -33 -87 0
6 33 98 0
-6 -33 -98 0
7 33 109 0
-7 -33 -109 0
8 33 120 0
-8 -33 -120 0
9 33 131 0
-9 -33 -131 0
10 33 142 0
-10 -33 -142 0
1 34 44 0
-1 -34 -44 0
2 34 55 0
-2 -34 -55 0
3 34 66 0
-3 -34 -66 0
4 34 77 0
-4 -34 -77 0
5 34 88 0
-5 -34 -88 0
6 34 99 0
-6 -34 -99 0
7 34 110 0
-7 -34 -110 0
8 34 121 0
-8 -34 -121 0
9 34 132 0
-9 -34 -132 0
1 35 45 0
-1 -35 -45 0
2 35 56 0
-2 -35 -56 0
3 35 67 0
-3 -35 -67 0
4 35 78 0
-4 -35 -78 0
5 35 89 0
-5 -35 -89 0
6 35 100 0
-6 -35 -100 0
7 35 111 0
-7 -35 -111 0
8 35 122 0
-8 -35 -122 0
9 35 133 0
-9 -35 -133 0
1 36 46 0
-1 -36 -46 0
2 36 57 0
-2 -36 -57 0
3 36 68 0
-3 -36 -68 0
4 36 79 0
-4 -36 -79 0
5 36 90 0
-5 -36 -90 0
6 36 101 0
-6 -36 -101 0
7 36 112 0
-7 -36 -112 0
8 36 123 0
-8 -36 -123 0
9 36 134 0
-9 -36 -134 0
1 37 47 0
-1 -37 -47 0
2 37 58 0
-2 -37 -58 0
3 37 69 0
-3 -37 -69 0
4 37 80 0
-4 -37 -80 0
5 37 91 0
-5 -37 -91 0
6 37 102 0
-6 -37 -102 0
7 37 113 0
-7 -37 -113 0
8 37 124 0
-8 -37 -124 0
9 37 135 0
-9 -37 -135 0
1 38 48 0
-1 -38 -48 0
2 38 59 0
-2 -38 -59 0
3 38 70 0
-3 -38 -70 0
4 38 81 0
-4 -38 -81 0
5 38 92 0
-5 -38 -92 0
6 38 103 0
-6 -38 -103 0
7 38 114 0
-7 -38 -114 0
8 38 125 0
-8 -38 -125 0
9 38 136 0
-9 -38 -136 0
1 39 49 0
-1 -39 -49 0
2 39 60 0
-2 -39 -60 0
3 39 71 0
-3 -39 -71 0
4 39 82 0
-4 -39 -82 0
5 39 93 0
-5 -39 -93 0
6 39 104 0
-6 -39 -104 0
7 39 115 0
-7 -39 -115 0
8 39 126 0
-8 -39 -126 0
9 39 137 0
-9 -39 -137 0
1 40 50 0
-1 -40 -50 0
2 40 61 0
-2 -40 -61 0
3 40 72 0
-3 -40 -72 0
4 40 83 0
-4 -40 -83 0
5 40 94 0
-5 -40 -94 0
6 40 105 0
-6 -40 -105 0
7 40 116 0
-7 -40 -116 0
8 40 127 0
-8 -40 -127 0
9 40 138 0
-9 -40 -138 0
1 41 51 0
-1 -41 -51 0
2 41 62 0
-2 -41 -62 0
3 41 73 0
-3 -41 -73 0
4 41 84 0
-4 -41 -84 0
5 41 95 0
-5 -41 -95 0
6 41 106 0
-6 -41 -106 0
7 41 117 0
-7 -41 -117 0
8 41 128 0
-8 -41 -128 0
9 41 139 0
-9 -41 -139 0
1 42 52 0
-1 -42 -52 0
2 42 63 0
-2 -42 -63 0
3 42 74 0
-3 -42 -74 0
4 42 85 0
-4 -42 -85 0
5 42 96 0
-5 -42 -96 0
6 42 107 0
-6 -42 -107 0
7 42 118 0
-7 -42 -118 0
8 42 129 0
-8 -42 -129 0
9 42 140 0
-9 -42 -140 0
1 43 53 0
-1 -43 -53 0
2 43 64 0
-2 -43 -64 0
3 43 75 0
-3 -43 -75 0
4 43 86 0
-4 -43 -86 0
5 43 97 0
-5 -43 -97 0
6 43 108 0
-6 -43 -108 0
7 43 119 0
-7 -43 -119 0
8 43 130 0
-8 -43 -130 0
9 43 141 0
-9 -43 -141 0
1 44 54 0
-1 -44 -54 0
2 44 65 0
-2 -44 -65 0
3 44 76 0
-3 -44 -76 0
4 44 87 0
-4 -44 -87 0
5 44 98 0
-5 -44 -98 0
6 44 109 0
-6 -44 -109 0
7 44 120 0
-7 -44 -120 0
8 44 131 0
-8 -44 -131 0
9 44 142 0
-9 -44 -142 0
1 45 55 0
-1 -45 -55 0
2 45 66 0
-2 -45 -66 0
3 45 77 0
-3 -45 -77 0
4 45 88 0
-4 -45 -88 0
5 45 99 0
-5 -45 -99 0
6 45 110 0
-6 -45 -110 0
7 45 121 0
-7 -45 -121 0
8 45 132 0
-8 -45 -132 0
1 46 56 0
-1 -46 -56 0
2 46 67 0
-2 -46 -67 0
3 46 78 0
-3 -46 -78 0
4 46 89 0
-4 -46 -89 0
5 46 100 0
-5 -46 -100 0
6 46 111 0
-6 -46 -111 0
7 46 122 0
-7 -46 -122 0
8 46 133 0
-8 -46 -133 0
1 47 57 0
-1 -47 -57 0
2 47 68 0
-2 -47 -68 0
3 47 79 0
-3 -47 -79 0
4 47 90 0
-4 -47 -90 0
5 47 101 0
-5 -47 -101 0
6 47 112 0
-6 -47 -112 0
7 47 123 0
-7 -47 -123 0
8 47 134 0
-8 -47 -134 0
1 48 58 0
-1 -48 -58 0
2 48 69 0
-2 -48 -69 0
3 48 80 0
-3 -48 -80 0
4 48 91 0
-4 -48 -91 0
5 48 102 0
-5 -48 -102 0
6 48 113 0
-6 -48 -113 0
7 48 124 0
-7 -48 -124 0
8 48 135 0
-8 -48 -135 0
1 49 59 0
-1 -49 -59 0
2 49 70 0
-2 -49 -70 0
3 49 81 0
-3 -49 -81 0
4 49 92 0
-4 -49 -92 0
5 49 103 0
-5 -49 -103 0
6 49 114 0
-6 -49 -114 0
7 49 125 0
-7 -49 -125 0
8 49 136 0
-8 -49 -136 0
1 50 60 0
-1 -50 -60 0
2 50 71 0
-2 -50 -71 0
3 50 82 0
-3 -50 -82 0
4 50 93 0
-4 -50 -93 0
5 50 104 0
-5 -50 -104 0
6 50 115 0
-6 -50 -115 0
7 50 126 0
-7 -50 -126 0
8 50 137 0
-8 -50 -137 0
1 51 61 0
-1 -51 -61 0
2 51 72 0
-2 -51 -72 0
3 51 83 0
-3 -51 -83 0
4 51 94 0
-4 -51 -94 0
5 51 105 0
-5 -51 -105 0
6 51 116 0
-6 -51 -116 0
7 51 127 0
-7 -51 -127 0
8 51 138 0
-8 -51 -138 0
1 52 62 0
-1 -52 -62 0
2 52 73 0
-2 -52 -73 0
3 52 84 0
-3 -52 -84 0
4 52 95 0
-4 -52 -95 0
5 52 106 0
-5 -52 -106 0
6 52 117 0
-6 -52 -117 0
7 52 128 0
-7 -52 -128 0
8 52 139 0
-8 -52 -139 0
1 53 63 0
-1 -53 -63 0
2 53 74 0
-2 -53 -74 0
3 53 85 0
-3 -53 -85 0
4 53 96 0
-4 -53 -96 0
5 53 107 0
-5 -53 -107 0
6 53 118 0
-6 -53 -118 0
7 53 129 0
-7 -53 -129 0
8 53 140 0
-8 -53 -140 0
1 54 64 0
-1 -54 -64 0
2 54 75 0
-2 -54 -75 0
3 54 86 0
-3 -54 -86 0
4 54 97 0
-4 -54 -97 0
5 54 108 0
-5 -54 -108 0
6 54 119 0
-6 -54 -119 0
7 54 130 0
-7 -54 -130 0
8 54 141 0
-8 -54 -141 0
1 55 65 0
-1 -55 -65 0
2 55 76 0
-2 -55 -76 0
3 55 87 0
-3 -55 -87 0
4 55 98 0
-4 -55 -98 0
5 55 109 0
-5 -55 -109 0
6 55 120 0
-6 -55 -120 0
7 55 131 0
-7 -55 -131 0
8 55 142 0
-8 -55 -142 0
1 56 66 0
-1 -56 -66 0
2 56 77 0
-2 -56 -77 0
3 56 88 0
-3 -56 -88 0
4 56 99 0
-4 -56 -99 0
5 56 110 0
-5 -56 -110 0
6 56 121 0
-6 -56 -121 0
7 56 132 0
-7 -56 -132 0
1 57 67 0
-1 -57 -67 0
2 57 78 0
-2 -57 -78 0
3 57 89 0
-3 -57 -89 0
4 57 100 0
-4 -57 -100 0
5 57 111 0
-5 -57 -111 0
6 57 122 0
-6 -57 -122 0
7 57 133 0
-7 -57 -133 0
1 58 68 0
-1 -58 -68 0
2 58 79 0
-2 -58 -79 0
3 58 90 0
-3 -58 -90 0
4 58 101 0
-4 -58 -101 0
5 58 112 0
-5 -58 -112 0
6 58 123 0
-6 -58 -123 0
7 58 134 0
-7 -58 -134 0
1 59 69 0
-1 -59 -69 0
2 59 80 0
-2 -59 -80 0
3 59 91 0
-3 -59 -91 0
4 59 102 0
-4 -59 -102 0
5 59 113 0
-5 -59 -113 0
6 59 124 0
-6 -59 -124 0
7 59 135 0
-7 -59 -135 0
1 60 70 0
-1 -60 -70 0
2 60 81 0
-2 -60 -81 0
3 60 92 0
-3 -60 -92 0
4 60 103 0
-4 -60 -103 0
5 60 114 0
-5 -60 -114 0
6 60 125 0
-6 -60 -125 0
7 60 136 0
-7 -60 -136 0
1 61 71 0
-1 -61 -71 0
2 61 82 0
-2 -61 -82 0
3 61 93 0
-3 -61 -93 0
4 61 104 0
-4 -61 -104 0
5 61 115 0
-5 -61 -115 0
6 61 126 0
-6 -61 -126 0
7 61 137 0
-7 -61 -137 0
1 62 72 0
-1 -62 -72 0
2 62 83 0
-2 -62 -83 0
3 62 94 0
-3 -62 -94 0
4 62 105 0
-4 -62 -105 0
5 62 116 0
-5 -62 -116 0
6 62 127 0
-6 -62 -127 0
7 62 138 0
-7 -62 -138 0
1 63 73 0
-1 -63 -73 0
2 63 84 0
-2 -63 -84 0
3 63 95 0
-3 -63 -95 0
4 63 106 0
-4 -63 -106 0
5 63 117 0
-5 -63 -117 0
6 63 128 0
-6 -63 -128 0
7 63 139 0
-7 -63 -139 0
1 64 74 0
-1 -64 -74 0
2 64 85 0
-2 -64 -85 0
3 64 96 0
-3 -64 -96 0
4 64 107 0
-4 -64 -107 0
5 64 118 0
-5 -64 -118 0
6 64 129 0
-6 -64 -129 0
7 64 140 0
-7 -64 -140 0
1 65 75 0
-1 -65 -75 0
2 65 86 0
-2 -65 -86 0
3 65 97 0
-3 -65 -97 0
4 65 108 0
-4 -65 -108 0
5 65 119 0
-5 -65 -119 0
6 65 130 0
-6 -65 -130 0
7 65 141 0
-7 -65 -141 0
1 66 76 0
-1 -66 -76 0
2 66 87 0
-2 -66 -87 0
3 66 98 0
-3 -66 -98 0
4 66 109 0
-4 -66 -109 0
5 66 120 0
-5 -66 -120 0
6 66 131 0
-6 -66 -131 0
7 66 142 0
-7 -66 -142 0
1 67 77 0
-1 -67 -77 0
2 67 88 0
-2 -67 -88 0
3 67 99 0
-3 -67 -99 0
4 67 110 0
-4 -67 -110 0
5 67 121 0
-5 -67 -121 0
6 67 132 0
-6 -67 -132 0
1 68 78 0
-1 -68 -78 0
2 68 89 0
-2 -68 -89 0
3 68 100 0
-3 -68 -100 0
4 68 111 0
-4 -68 -111 0
5 68 122 0
-5 -68 -122 0
6 68 133 0
-6 -68 -133 0
1 69 79 0
-1 -69 -79 0
2 69 90 0
-2 -69 -90 0
3 69 101 0
-3 -69 -101 0
4 69 112 0
-4 -69 -112 0
5 69 123 0
-5 -69 -123 0
6 69 134 0
-6 -69 -134 0
1 70 80 0
-1 -70 -80 0
2 70 91 0
-2 -70 -91 0
3 70 102 0
-3 -70 -102 0
4 70 113 0
-4 -70 -113 0
5 70 124 0
-5 -70 -124 0
6 70 135 0
-6 -70 -135 0
1 71 81 0
-1 -71 -81 0
2 71 92 0
-2 -71 -92 0
3 71 103 0
-3 -71 -103 0
4 71 114 0
-4 -71 -114 0
5 71 125 0
-5 -71 -125 0
6 71 136 0
-6 -71 -136 0
1 72 82 0
-1 -72 -82 0
2 72 93 0
-2 -72 -93 0
3 72 104 0
-3 -72 -104 0
4 72 115 0
-4 -72 -115 0
5 72 126 0
-5 -72 -126 0
6 72 137 0
-6 -72 -137 0
1 73 83 0
-1 -73 -83 0
2 73 94 0
-2 -73 -94 0
3 73 105 0
-3 -73 -105 0
4 73 116 0
-4 -73 -116 0
5 73 127 0
-5 -73 -127 0
6 73 138 0
-6 -73 -138 0
1 74 84 0
-1 -74 -84 0
2 74 95 0
-2 -74 -95 0
3 74 106 0
-3 -74 -106 0
4 74 117 0
-4 -74 -117 0
5 74 128 0
-5 -74 -128 0
6 74 139 0
-6 -74 -139 0
1 75 85 0
-1 -75 -85 0
2 75 96 0
-2 -75 -96 0
3 75 107 0
-3 -75 -107 0
4 75 118 0
-4 -75 -118 0
5 75 129 0
-5 -75 -129 0
6 75 140 0
-6 -75 -140 0
1 76 86 0
-1 -76 -86 0
2 76 97 0
-2 -76 -97 0
3 76 108 0
-3 -76 -108 0
4 76 119 0
-4 -76 -119 0
5 76 130 0
-5 -76 -130 0
6 76 141 0
-6 -76 -141 0
1 77 87 0
-1 -77 -87 0
2 77 98 0
-2 -77 -98 0
3 77 109 0
-3 -77 -109 0
4 77 120 0
-4 -77 -120 0
5 77 131 0
-5 -77 -131 0
6 77 142 0
-6 -77 -142 0
1 78 88 0
-1 -78 -88 0
2 78 99 0
-2 -78 -99 0
3 78 110 0
-3 -78 -110 0
4 78 121 0
-4 -78 -121 0
5 78 132 0
-5 -78 -132 0
1 79 89 0
-1 -79 -89 0
2 79 100 0
-2 -79 -100 0
3 79 111 0
-3 -79 -111 0
4 79 122 0
-4 -79 -122 0
5 79 133 0
-5 -79 -133 0
1 80 90 0
-1 -80 -90 0
2 80 101 0
-2 -80 -101 0
3 80 112 0
-3 -80 -112 0
4 80 123 0
-4 -80 -123 0
5 80 134 0
-5 -80 -134 0
1 81 91 0
-1 -81 -91 0
2 81 102 0
-2 -81 -102 0
3 81 113 0
-3 -81 -113 0
4 81 124 0
-4 -81 -124 0
5 81 135 0
-5 -81 -135 0
1 82 92 0
-1 -82 -92 0
2 82 103 0
-2 -82 -103 0
3 82 114 0
-3 -82 -114 0
4 82 125 0
-4 -82 -125 0
5 82 136 0
-5 -82 -136 0
1 83 93 0
-1 -83 -93 0
2 83 104 0
-2 -83 -104 0
3 83 115 0
-3 -83 -115 0
4 83 126 0
-4 -83 -126 0
5 83 137 0
-5 -83 -137 0
1 84 94 0
-1 -84 -94 0
2 84 105 0
-2 -84 -105 0
3 84 116 0
-3 -84 -116 0
4 84 127 0
-4 -84 -127 0
5 84 138 0
-5 -84 -138 0
1 85 95 0
-1 -85 -95 0
2 85 106 0
-2 -85 -106 0
3 85 117 0
-3 -85 -117 0
4 85 128 0
-4 -85 -128 0
5 85 139 0
-5 -85 -139 0
1 86 96 0
-1 -86 -96 0
2 86 107 0
-2 -86 -107 0
3 86 118 0
-3 -86 -118 0
4 86 129 0
-4 -86 -129 0
5 86 140 0
-5 -86 -140 0
1 87 97 0
-1 -87 -97 0
2 87 108 0
-2 -87 -108 0
3 87 119 0
-3 -87 -119 0
4 87 130 0
-4 -87 -130 0
5 87 141 0
-5 -87 -141 0
1 88 98 0
-1 -88 -98 0
2 88 109 0
-2 -88 -109 0
3 88 120 0
-3 -88 -120 0
4 88 131 0
-4 -88 -131 0
5 88 142 0
-5 -88 -142 0
1 89 99 0
-1 -89 -99 0
2 89 110 0
-2 -89 -110 0
3 89 121 0
-3 -89 -121 0
4 89 132 0
-4 -89 -132 0
1 90 100 0
-1 -90 -100 0
2 90 111 0
-2 -90 -111 0
3 90 122 0
-3 -90 -122 0
4 90 133 0
-4 -90 -133 0
1 91 101 0
-1 -91 -101 0
2 91 112 0
-2 -91 -112 0
3 91 123 0
-3 -91 -123 0
4 91 134 0
-4 -91 -134 0
1 92 102 0
-1 -92 -102 0
2 92 113 0
-2 -92 -113 0
3 92 124 0
-3 -92 -124 0
4 92 135 0
-4 -92 -135 0
1 93 103 0
-1 -93 -103 0
2 93 114 0
-2 -93 -114 0
3 93 125 0
-3 -93 -125 0
4 93 136 0
-4 -93 -136 0
1 94 104 0
-1 -94 -104 0
2 94 115 0
-2 -94 -115 0
3 94 126 0
-3 -94 -126 0
4 94 137 0
-4 -94 -137 0
1 95 105 0
-1 -95 -105 0
2 95 116 0
-2 -95 -116 0
3 95 127 0
-3 -95 -127 0
4 95 138 0
-4 -95 -138 0
1 96 106 0
-1 -96 -106 0
2 96 117 0
-2 -96 -117 0
3 96 128 0
-3 -96 -128 0
4 96 139 0
-4 -96 -139 0
1 97 107 0
-1 -97 -107 0
2 97 118 0
-2 -97 -118 0
3 97 129 0
-3 -97 -129 0
4 97 140 0
-4 -97 -140 0
1 98 108 0
-1 -98 -108 0
2 98 119 0
-2 -98 -119 0
3 98 130 0
-3 -98 -130 0
4 98 141 0
-4 -98 -141 0
1 99 109 0
-1 -99 -109 0
2 99 120 0
-2 -99 -120 0
3 99 131 0
-3 -99 -131 0
4 99 142 0
-4 -99 -142 0
1 100 110 0
-1 -100 -110 0
2 100 121 0
-2 -100 -121 0
3 100 132 0
-3 -100 -132 0
1 101 111 0
-1 -101 -111 0
2 101 122 0
-2 -101 -122 0
3 101 133 0
-3 -101 -133 0
1 102 112 0
-1 -102 -112 0
2 102 123 0
-2 -102 -123 0
3 102 134 0
-3 -102 -134 0
1 103 113 0
-1 -103 -113 0
2 103 124 0
-2 -103 -124 0
3 103 135 0
-3 -103 -135 0
1 104 114 0
-1 -104 -114 0
2 104 125 0
-2 -104 -125 0
3 104 136 0
-3 -104 -136 0
1 105 115 0
-1 -105 -115 0
2 105 126 0
-2 -105 -126 0
3 105 137 0
-3 -105 -137 0
1 106 116 0
-1 -106 -116 0
2 106 127 0
-2 -106 -127 0
3 106 138 0
-3 -106 -138 0
1 107 117 0
-1 -107 -117 0
2 107 128 0
-2 -107 -128 0
3 107 139 0
-3 -107 -139 0
1 108 118 0
-1 -108 -118 0
2 108 129 0
-2 -108 -129 0
3 108 140 0
-3 -108 -140 0
1 109 119 0
-1 -109 -119 0
2 109 130 0
-2 -109 -130 0
3 109 141 0
-3 -109 -141 0
1 110 120 0
-1 -110 -120 0
2 110 131 0
-2 -110 -131 0
3 110 142 0
-3 -110 -142 0
1 111 121 0
-1 -111 -121 0
2 111 132 0
-2 -111 -132 0
1 112 122 0
-1 -112 -122 0
2 112 133 0
-2 -112 -133 0
1 113 123 0
-1 -113 -123 0
2 113 134 0
-2 -113 -134 0
1 114 124 0
-1 -114 -124 0
2 114 135 0
-2 -114 -135 0
1 115 125 0
-1 -115 -125 0
2 115 136 0
-2 -115 -136 0
1 116 126 0
-1 -116 -126 0
2 116 137 0
-2 -116 -137 0
1 117 127 0
-1 -117 -127 0
2 117 138 0
-2 -117 -138 0
1 118 128 0
-1 -118 -128 0
2 118 139 0
-2 -118 -139 0
1 119 129 0
-1 -119 -129 0
2 119 140 0
-2 -119 -140 0
1 120 130 0
-1 -120 -130 0
2 120 141 0
-2 -120 -141 0
1 121 131 0
-1 -121 -131 0
2 121 142 0
-2 -121 -142 0
1 122 132 0
-1 -122 -132 0
1 123 133 0
-1 -123 -133 0
1 124 134 0
-1 -124 -134 0
1 125 135 0
-1 -125 -135 0
1 126 136 0
-1 -126 -136 0
1 127 137 0
-1 -127 -137 0
1 128 138 0
-1 -128 -138 0
1 129 139 0
-1 -129 -139 0
1 130 140 0
-1 -130 -140 0
1 131 141 0
-1 -131 -141 0
1 132 142 0
-1 -132 -142 0
