certificates/rado_a11_c1_N142.drat
1 -142 0
-142 0
-1 0
11 0
132 0
-131 0
-12 0
141 0
121 0
22 0
2 0
-21 0
-23 0
-122 0
-32 0
-43 0
-100 0
-120 0
-111 0
31 0
33 0
13 0
112 0
42 0
53 0
110 0
90 0
130 0
101 0
-10 0
-52 0
-54 0
-34 0
-133 0
-91 0
-63 0
-74 0
-89 0
-69 0
-109 0
-80 0
20 0
119 0
24 0
62 0
64 0
44 0
123 0
81 0
73 0
84 0
99 0
79 0
59 0
70 0
-41 0
-140 0
-98 0
-45 0
-3 0
-83 0
-85 0
-65 0
-102 0
-60 0
-94 0
-105 0
-78 0
-58 0
-5 0
-38 0
-49 0
51 0
9 0
108 0
88 0
55 0
35 0
134 0
6 0
17 0
26 0
28 0
66 0
37 0
75 0
77 0
46 0
48 0
86 0
57 0
95 0
68 0
106 0
7 0
93 0
115 0
117 0
97 0
92 0
50 0
104 0
126 0
137 0
4 0
15 0
114 0
136 0
29 0
40 0
128 0
139 0
103 0
39 0
-72 0
-30 0
0
